benchmark/results/graph__15-1000-0.10-02_2/graph__15-1000-0.10-02_2_QuintonOs_Benders_primal_sub.lp
\ This file has been generated by DOcplex
\ ENCODING=ISO-8859-1
\Problem name: Quinton Bounded Benders_primal_sub

Maximize
 obj: tau
Subject To
 c1: tau <= 0.000966183575
 c2: y_a0_proc_1 - tau = 0
 c3: y_a0_proc_1 <= 1
 c4: tau <= 0.001153402537
 c5: y_a1_proc_0 + y_a1_proc_1 - tau = 0
 c6: y_a1_proc_0 <= 0
 c7: y_a1_proc_1 <= 1
 c8: tau <= 0.002380952381
 c9: y_a2_proc_1 - tau = 0
 c10: y_a2_proc_1 <= 1
 c11: tau <= 0.001988071571
 c12: y_a3_proc_1 - tau = 0
 c13: y_a3_proc_1 <= 1
 c14: tau <= 0.001158748552
 c15: y_a4_proc_0 + y_a4_proc_1 - tau = 0
 c16: y_a4_proc_0 <= 1
 c17: y_a4_proc_1 <= 0
 c18: tau <= 0.001308900524
 c19: y_a5_proc_0 + y_a5_proc_1 - tau = 0
 c20: y_a5_proc_0 <= 0
 c21: y_a5_proc_1 <= 1
 c22: tau <= 0.001094091904
 c23: y_a6_proc_0 + y_a6_proc_1 - tau = 0
 c24: y_a6_proc_0 <= 1
 c25: y_a6_proc_1 <= 0
 c26: tau <= 0.000858369099
 c27: y_a7_proc_0 + y_a7_proc_1 - tau = 0
 c28: y_a7_proc_0 <= 1
 c29: y_a7_proc_1 <= 0
 c30: tau <= 0.001302083333
 c31: y_a8_proc_0 + y_a8_proc_1 - tau = 0
 c32: y_a8_proc_0 <= 1
 c33: y_a8_proc_1 <= 0
 c34: tau <= 0.000962463908
 c35: y_a9_proc_0 + y_a9_proc_1 - tau = 0
 c36: y_a9_proc_0 <= 0
 c37: y_a9_proc_1 <= 1
 c38: tau <= 0.000883392226
 c39: y_a10_proc_0 + y_a10_proc_1 - tau = 0
 c40: y_a10_proc_0 <= 1
 c41: y_a10_proc_1 <= 0
 c42: tau <= 0.000807102502
 c43: y_a11_proc_1 - tau = 0
 c44: y_a11_proc_1 <= 1
 c45: tau <= 0.000996015936
 c46: y_a12_proc_0 + y_a12_proc_1 - tau = 0
 c47: y_a12_proc_0 <= 0
 c48: y_a12_proc_1 <= 1
 c49: tau <= 0.001199040767
 c50: y_a13_proc_0 - tau = 0
 c51: y_a13_proc_0 <= 1
 c52: tau <= 0.001013171226
 c53: y_a14_proc_0 - tau = 0
 c54: y_a14_proc_0 <= 1
 c55: u_a0 - u_a1 - 1179 y_a1_proc_0 - 867 y_a1_proc_1 >= -1
 c56: u_a0 - u_a2 - 420 y_a2_proc_1 >= 0
 c57: u_a3 - u_a2 - 420 y_a2_proc_1 >= 0
 c58: u_a4 - u_a0 - 1035 y_a0_proc_1 >= 0
 c59: u_a5 - u_a3 - 503 y_a3_proc_1 >= 0
 c60: u_a6 - u_a2 - 420 y_a2_proc_1 >= 0
 c61: u_a7 - u_a5 - 726 y_a5_proc_0 - 764 y_a5_proc_1 >= 0
 c62: u_a6 - u_a8 - 768 y_a8_proc_0 - 1121 y_a8_proc_1 >= -1
 c63: u_a9 - u_a4 - 863 y_a4_proc_0 - 995 y_a4_proc_1 >= 0
 c64: u_a6 - u_a10 - 1132 y_a10_proc_0 - 861 y_a10_proc_1 >= -1
 c65: u_a1 - u_a11 - 1239 y_a11_proc_1 >= 0
 c66: u_a12 - u_a6 - 914 y_a6_proc_0 - 1191 y_a6_proc_1 >= 0
 c67: u_a13 - u_a11 - 1239 y_a11_proc_1 >= 0
 c68: u_a2 - u_a14 - 987 y_a14_proc_0 >= -1
 c69: u_a5 - u_a13 - 834 y_a13_proc_0 >= -1
 c70: u_a1 - u_a12 - 1203 y_a12_proc_0 - 1004 y_a12_proc_1 >= 0
 c71: u_a12 - u_a8 - 768 y_a8_proc_0 - 1121 y_a8_proc_1 >= -1
 c72: u_a8 - u_a11 - 1239 y_a11_proc_1 >= -1
 c73: u_a11 - u_a4 - 863 y_a4_proc_0 - 995 y_a4_proc_1 >= 0
 c74: u_a11 - u_a8 - 768 y_a8_proc_0 - 1121 y_a8_proc_1 >= 0
 c75: u_a10 - u_a0 - 1035 y_a0_proc_1 >= 0
 c76: u_a10 - u_a7 - 1165 y_a7_proc_0 - 996 y_a7_proc_1 >= 0
 c77: u_a14 - u_a9 - 784 y_a9_proc_0 - 1039 y_a9_proc_1 >= 0
 c78: u_a8 - u_a12 - 1203 y_a12_proc_0 - 1004 y_a12_proc_1 >= 0
 c79: u_a10 - u_a13 - 834 y_a13_proc_0 >= 0
 c80: u_a1 - u_a0 - 1035 y_a0_proc_1 >= 0
 c81: u_a0 - u_a1 - 867 y_a1_proc_1 >= -1
 c82: u_a2 - u_a0 - 1035 y_a0_proc_1 >= -1
 c83: u_a0 - u_a2 - 420 y_a2_proc_1 >= 0
 c84: u_a3 - u_a0 - 1035 y_a0_proc_1 >= 0
 c85: u_a0 - u_a3 - 503 y_a3_proc_1 >= -1
 c86: u_a4 - u_a0 - 1035 y_a0_proc_1 >= -1256
 c87: u_a0 - u_a4 - 995 y_a4_proc_1 >= -1223
 c88: u_a5 - u_a0 - 1035 y_a0_proc_1 >= 0
 c89: u_a0 - u_a5 - 764 y_a5_proc_1 >= -1
 c90: u_a6 - u_a0 - 1035 y_a0_proc_1 >= -1256
 c91: u_a0 - u_a6 - 1191 y_a6_proc_1 >= -1223
 c92: u_a7 - u_a0 - 1035 y_a0_proc_1 >= -1223
 c93: u_a0 - u_a7 - 996 y_a7_proc_1 >= -1256
 c94: u_a8 - u_a0 - 1035 y_a0_proc_1 >= -1223
 c95: u_a0 - u_a8 - 1121 y_a8_proc_1 >= -1256
 c96: u_a9 - u_a0 - 1035 y_a0_proc_1 >= 0
 c97: u_a0 - u_a9 - 1039 y_a9_proc_1 >= -1
 c98: u_a10 - u_a0 - 1035 y_a0_proc_1 >= -1256
 c99: u_a0 - u_a10 - 861 y_a10_proc_1 >= -1223
 c100: u_a11 - u_a0 - 1035 y_a0_proc_1 >= 0
 c101: u_a0 - u_a11 - 1239 y_a11_proc_1 >= -1
 c102: u_a12 - u_a0 - 1035 y_a0_proc_1 >= 0
 c103: u_a0 - u_a12 - 1004 y_a12_proc_1 >= -1
 c104: u_a2 - u_a1 - 867 y_a1_proc_1 >= -1
 c105: u_a1 - u_a2 - 420 y_a2_proc_1 >= 0
 c106: u_a3 - u_a1 - 867 y_a1_proc_1 >= -1
 c107: u_a1 - u_a3 - 503 y_a3_proc_1 >= 0
 c108: u_a4 - u_a1 - 1179 y_a1_proc_0 >= -1256
 c109: u_a4 - u_a1 - 867 y_a1_proc_1 >= -1256
 c110: u_a1 - u_a4 - 863 y_a4_proc_0 >= -1223
 c111: u_a1 - u_a4 - 995 y_a4_proc_1 >= -1223
 c112: u_a5 - u_a1 - 1179 y_a1_proc_0 >= -2479
 c113: u_a5 - u_a1 - 867 y_a1_proc_1 >= -1
 c114: u_a1 - u_a5 - 726 y_a5_proc_0 >= -2478
 c115: u_a1 - u_a5 - 764 y_a5_proc_1 >= 0
 c116: u_a6 - u_a1 - 1179 y_a1_proc_0 >= -1256
 c117: u_a6 - u_a1 - 867 y_a1_proc_1 >= -1256
 c118: u_a1 - u_a6 - 914 y_a6_proc_0 >= -1223
 c119: u_a1 - u_a6 - 1191 y_a6_proc_1 >= -1223
 c120: u_a7 - u_a1 - 1179 y_a1_proc_0 >= -1223
 c121: u_a7 - u_a1 - 867 y_a1_proc_1 >= -1223
 c122: u_a1 - u_a7 - 1165 y_a7_proc_0 >= -1256
 c123: u_a1 - u_a7 - 996 y_a7_proc_1 >= -1256
 c124: u_a8 - u_a1 - 1179 y_a1_proc_0 >= -1256
 c125: u_a8 - u_a1 - 867 y_a1_proc_1 >= -1256
 c126: u_a1 - u_a8 - 768 y_a8_proc_0 >= -1223
 c127: u_a1 - u_a8 - 1121 y_a8_proc_1 >= -1223
 c128: u_a9 - u_a1 - 1179 y_a1_proc_0 >= -2479
 c129: u_a9 - u_a1 - 867 y_a1_proc_1 >= -1
 c130: u_a1 - u_a9 - 784 y_a9_proc_0 >= -2478
 c131: u_a1 - u_a9 - 1039 y_a9_proc_1 >= 0
 c132: u_a10 - u_a1 - 1179 y_a1_proc_0 >= -1256
 c133: u_a10 - u_a1 - 867 y_a1_proc_1 >= -1256
 c134: u_a1 - u_a10 - 1132 y_a10_proc_0 >= -1223
 c135: u_a1 - u_a10 - 861 y_a10_proc_1 >= -1223
 c136: u_a11 - u_a1 - 867 y_a1_proc_1 >= -1
 c137: u_a1 - u_a11 - 1239 y_a11_proc_1 >= 0
 c138: u_a12 - u_a1 - 1179 y_a1_proc_0 >= -2479
 c139: u_a12 - u_a1 - 867 y_a1_proc_1 >= -1
 c140: u_a1 - u_a12 - 1203 y_a12_proc_0 >= -2478
 c141: u_a1 - u_a12 - 1004 y_a12_proc_1 >= 0
 c142: u_a13 - u_a1 - 1179 y_a1_proc_0 >= -1223
 c143: u_a1 - u_a13 - 834 y_a13_proc_0 >= -1256
 c144: u_a14 - u_a1 - 1179 y_a1_proc_0 >= -1256
 c145: u_a1 - u_a14 - 987 y_a14_proc_0 >= -1223
 c146: u_a3 - u_a2 - 420 y_a2_proc_1 >= 0
 c147: u_a2 - u_a3 - 503 y_a3_proc_1 >= -1
 c148: u_a4 - u_a2 - 420 y_a2_proc_1 >= -1256
 c149: u_a2 - u_a4 - 995 y_a4_proc_1 >= -1223
 c150: u_a5 - u_a2 - 420 y_a2_proc_1 >= 0
 c151: u_a2 - u_a5 - 764 y_a5_proc_1 >= -1
 c152: u_a6 - u_a2 - 420 y_a2_proc_1 >= -1256
 c153: u_a2 - u_a6 - 1191 y_a6_proc_1 >= -1223
 c154: u_a7 - u_a2 - 420 y_a2_proc_1 >= -1223
 c155: u_a2 - u_a7 - 996 y_a7_proc_1 >= -1256
 c156: u_a8 - u_a2 - 420 y_a2_proc_1 >= -1223
 c157: u_a2 - u_a8 - 1121 y_a8_proc_1 >= -1256
 c158: u_a9 - u_a2 - 420 y_a2_proc_1 >= 0
 c159: u_a2 - u_a9 - 1039 y_a9_proc_1 >= -1
 c160: u_a10 - u_a2 - 420 y_a2_proc_1 >= -1223
 c161: u_a2 - u_a10 - 861 y_a10_proc_1 >= -1256
 c162: u_a11 - u_a2 - 420 y_a2_proc_1 >= 0
 c163: u_a2 - u_a11 - 1239 y_a11_proc_1 >= -1
 c164: u_a12 - u_a2 - 420 y_a2_proc_1 >= 0
 c165: u_a2 - u_a12 - 1004 y_a12_proc_1 >= -1
 c166: u_a4 - u_a3 - 503 y_a3_proc_1 >= -1256
 c167: u_a3 - u_a4 - 995 y_a4_proc_1 >= -1223
 c168: u_a5 - u_a3 - 503 y_a3_proc_1 >= 0
 c169: u_a3 - u_a5 - 764 y_a5_proc_1 >= -1
 c170: u_a6 - u_a3 - 503 y_a3_proc_1 >= -1256
 c171: u_a3 - u_a6 - 1191 y_a6_proc_1 >= -1223
 c172: u_a7 - u_a3 - 503 y_a3_proc_1 >= -1256
 c173: u_a3 - u_a7 - 996 y_a7_proc_1 >= -1223
 c174: u_a8 - u_a3 - 503 y_a3_proc_1 >= -1256
 c175: u_a3 - u_a8 - 1121 y_a8_proc_1 >= -1223
 c176: u_a9 - u_a3 - 503 y_a3_proc_1 >= 0
 c177: u_a3 - u_a9 - 1039 y_a9_proc_1 >= -1
 c178: u_a10 - u_a3 - 503 y_a3_proc_1 >= -1223
 c179: u_a3 - u_a10 - 861 y_a10_proc_1 >= -1256
 c180: u_a11 - u_a3 - 503 y_a3_proc_1 >= 0
 c181: u_a3 - u_a11 - 1239 y_a11_proc_1 >= -1
 c182: u_a12 - u_a3 - 503 y_a3_proc_1 >= 0
 c183: u_a3 - u_a12 - 1004 y_a12_proc_1 >= -1
 c184: u_a5 - u_a4 - 863 y_a4_proc_0 >= -1256
 c185: u_a5 - u_a4 - 995 y_a4_proc_1 >= -1256
 c186: u_a4 - u_a5 - 726 y_a5_proc_0 >= -1223
 c187: u_a4 - u_a5 - 764 y_a5_proc_1 >= -1223
 c188: u_a6 - u_a4 - 863 y_a4_proc_0 >= -1
 c189: u_a6 - u_a4 - 995 y_a4_proc_1 >= -2479
 c190: u_a4 - u_a6 - 914 y_a6_proc_0 >= 0
 c191: u_a4 - u_a6 - 1191 y_a6_proc_1 >= -2478
 c192: u_a7 - u_a4 - 863 y_a4_proc_0 >= 0
 c193: u_a7 - u_a4 - 995 y_a4_proc_1 >= -2478
 c194: u_a4 - u_a7 - 1165 y_a7_proc_0 >= -1
 c195: u_a4 - u_a7 - 996 y_a7_proc_1 >= -2479
 c196: u_a8 - u_a4 - 863 y_a4_proc_0 >= 0
 c197: u_a8 - u_a4 - 995 y_a4_proc_1 >= -2478
 c198: u_a4 - u_a8 - 768 y_a8_proc_0 >= -1
 c199: u_a4 - u_a8 - 1121 y_a8_proc_1 >= -2479
 c200: u_a9 - u_a4 - 863 y_a4_proc_0 >= -1256
 c201: u_a9 - u_a4 - 995 y_a4_proc_1 >= -1256
 c202: u_a4 - u_a9 - 784 y_a9_proc_0 >= -1223
 c203: u_a4 - u_a9 - 1039 y_a9_proc_1 >= -1223
 c204: u_a10 - u_a4 - 863 y_a4_proc_0 >= 0
 c205: u_a10 - u_a4 - 995 y_a4_proc_1 >= -2478
 c206: u_a4 - u_a10 - 1132 y_a10_proc_0 >= -1
 c207: u_a4 - u_a10 - 861 y_a10_proc_1 >= -2479
 c208: u_a11 - u_a4 - 995 y_a4_proc_1 >= -1256
 c209: u_a4 - u_a11 - 1239 y_a11_proc_1 >= -1223
 c210: u_a12 - u_a4 - 863 y_a4_proc_0 >= -1256
 c211: u_a12 - u_a4 - 995 y_a4_proc_1 >= -1256
 c212: u_a4 - u_a12 - 1203 y_a12_proc_0 >= -1223
 c213: u_a4 - u_a12 - 1004 y_a12_proc_1 >= -1223
 c214: u_a13 - u_a4 - 863 y_a4_proc_0 >= 0
 c215: u_a4 - u_a13 - 834 y_a13_proc_0 >= -1
 c216: u_a14 - u_a4 - 863 y_a4_proc_0 >= 0
 c217: u_a4 - u_a14 - 987 y_a14_proc_0 >= -1
 c218: u_a6 - u_a5 - 726 y_a5_proc_0 >= -1256
 c219: u_a6 - u_a5 - 764 y_a5_proc_1 >= -1256
 c220: u_a5 - u_a6 - 914 y_a6_proc_0 >= -1223
 c221: u_a5 - u_a6 - 1191 y_a6_proc_1 >= -1223
 c222: u_a7 - u_a5 - 726 y_a5_proc_0 >= -1223
 c223: u_a7 - u_a5 - 764 y_a5_proc_1 >= -1223
 c224: u_a5 - u_a7 - 1165 y_a7_proc_0 >= -1256
 c225: u_a5 - u_a7 - 996 y_a7_proc_1 >= -1256
 c226: u_a8 - u_a5 - 726 y_a5_proc_0 >= -1256
 c227: u_a8 - u_a5 - 764 y_a5_proc_1 >= -1256
 c228: u_a5 - u_a8 - 768 y_a8_proc_0 >= -1223
 c229: u_a5 - u_a8 - 1121 y_a8_proc_1 >= -1223
 c230: u_a9 - u_a5 - 726 y_a5_proc_0 >= -2478
 c231: u_a9 - u_a5 - 764 y_a5_proc_1 >= 0
 c232: u_a5 - u_a9 - 784 y_a9_proc_0 >= -2479
 c233: u_a5 - u_a9 - 1039 y_a9_proc_1 >= -1
 c234: u_a10 - u_a5 - 726 y_a5_proc_0 >= -1223
 c235: u_a10 - u_a5 - 764 y_a5_proc_1 >= -1223
 c236: u_a5 - u_a10 - 1132 y_a10_proc_0 >= -1256
 c237: u_a5 - u_a10 - 861 y_a10_proc_1 >= -1256
 c238: u_a11 - u_a5 - 764 y_a5_proc_1 >= 0
 c239: u_a5 - u_a11 - 1239 y_a11_proc_1 >= -1
 c240: u_a12 - u_a5 - 726 y_a5_proc_0 >= -2478
 c241: u_a12 - u_a5 - 764 y_a5_proc_1 >= 0
 c242: u_a5 - u_a12 - 1203 y_a12_proc_0 >= -2479
 c243: u_a5 - u_a12 - 1004 y_a12_proc_1 >= -1
 c244: u_a13 - u_a5 - 726 y_a5_proc_0 >= -1256
 c245: u_a5 - u_a13 - 834 y_a13_proc_0 >= -1223
 c246: u_a14 - u_a5 - 726 y_a5_proc_0 >= -1256
 c247: u_a5 - u_a14 - 987 y_a14_proc_0 >= -1223
 c248: u_a7 - u_a6 - 914 y_a6_proc_0 >= 0
 c249: u_a7 - u_a6 - 1191 y_a6_proc_1 >= -2478
 c250: u_a6 - u_a7 - 1165 y_a7_proc_0 >= -1
 c251: u_a6 - u_a7 - 996 y_a7_proc_1 >= -2479
 c252: u_a8 - u_a6 - 914 y_a6_proc_0 >= 0
 c253: u_a8 - u_a6 - 1191 y_a6_proc_1 >= -2478
 c254: u_a6 - u_a8 - 768 y_a8_proc_0 >= -1
 c255: u_a6 - u_a8 - 1121 y_a8_proc_1 >= -2479
 c256: u_a9 - u_a6 - 914 y_a6_proc_0 >= -1256
 c257: u_a9 - u_a6 - 1191 y_a6_proc_1 >= -1256
 c258: u_a6 - u_a9 - 784 y_a9_proc_0 >= -1223
 c259: u_a6 - u_a9 - 1039 y_a9_proc_1 >= -1223
 c260: u_a10 - u_a6 - 914 y_a6_proc_0 >= 0
 c261: u_a10 - u_a6 - 1191 y_a6_proc_1 >= -2478
 c262: u_a6 - u_a10 - 1132 y_a10_proc_0 >= -1
 c263: u_a6 - u_a10 - 861 y_a10_proc_1 >= -2479
 c264: u_a11 - u_a6 - 1191 y_a6_proc_1 >= -1256
 c265: u_a6 - u_a11 - 1239 y_a11_proc_1 >= -1223
 c266: u_a12 - u_a6 - 914 y_a6_proc_0 >= -1256
 c267: u_a12 - u_a6 - 1191 y_a6_proc_1 >= -1256
 c268: u_a6 - u_a12 - 1203 y_a12_proc_0 >= -1223
 c269: u_a6 - u_a12 - 1004 y_a12_proc_1 >= -1223
 c270: u_a13 - u_a6 - 914 y_a6_proc_0 >= 0
 c271: u_a6 - u_a13 - 834 y_a13_proc_0 >= -1
 c272: u_a14 - u_a6 - 914 y_a6_proc_0 >= 0
 c273: u_a6 - u_a14 - 987 y_a14_proc_0 >= -1
 c274: u_a8 - u_a7 - 1165 y_a7_proc_0 >= -1
 c275: u_a8 - u_a7 - 996 y_a7_proc_1 >= -2479
 c276: u_a7 - u_a8 - 768 y_a8_proc_0 >= 0
 c277: u_a7 - u_a8 - 1121 y_a8_proc_1 >= -2478
 c278: u_a9 - u_a7 - 1165 y_a7_proc_0 >= -1223
 c279: u_a9 - u_a7 - 996 y_a7_proc_1 >= -1223
 c280: u_a7 - u_a9 - 784 y_a9_proc_0 >= -1256
 c281: u_a7 - u_a9 - 1039 y_a9_proc_1 >= -1256
 c282: u_a10 - u_a7 - 1165 y_a7_proc_0 >= 0
 c283: u_a10 - u_a7 - 996 y_a7_proc_1 >= -2478
 c284: u_a7 - u_a10 - 1132 y_a10_proc_0 >= -1
 c285: u_a7 - u_a10 - 861 y_a10_proc_1 >= -2479
 c286: u_a11 - u_a7 - 996 y_a7_proc_1 >= -1223
 c287: u_a7 - u_a11 - 1239 y_a11_proc_1 >= -1256
 c288: u_a12 - u_a7 - 1165 y_a7_proc_0 >= -1223
 c289: u_a12 - u_a7 - 996 y_a7_proc_1 >= -1223
 c290: u_a7 - u_a12 - 1203 y_a12_proc_0 >= -1256
 c291: u_a7 - u_a12 - 1004 y_a12_proc_1 >= -1256
 c292: u_a13 - u_a7 - 1165 y_a7_proc_0 >= 0
 c293: u_a7 - u_a13 - 834 y_a13_proc_0 >= -1
 c294: u_a14 - u_a7 - 1165 y_a7_proc_0 >= 0
 c295: u_a7 - u_a14 - 987 y_a14_proc_0 >= -1
 c296: u_a9 - u_a8 - 768 y_a8_proc_0 >= -1256
 c297: u_a9 - u_a8 - 1121 y_a8_proc_1 >= -1256
 c298: u_a8 - u_a9 - 784 y_a9_proc_0 >= -1223
 c299: u_a8 - u_a9 - 1039 y_a9_proc_1 >= -1223
 c300: u_a10 - u_a8 - 768 y_a8_proc_0 >= 0
 c301: u_a10 - u_a8 - 1121 y_a8_proc_1 >= -2478
 c302: u_a8 - u_a10 - 1132 y_a10_proc_0 >= -1
 c303: u_a8 - u_a10 - 861 y_a10_proc_1 >= -2479
 c304: u_a11 - u_a8 - 1121 y_a8_proc_1 >= -1256
 c305: u_a8 - u_a11 - 1239 y_a11_proc_1 >= -1223
 c306: u_a12 - u_a8 - 768 y_a8_proc_0 >= -1256
 c307: u_a12 - u_a8 - 1121 y_a8_proc_1 >= -1256
 c308: u_a8 - u_a12 - 1203 y_a12_proc_0 >= -1223
 c309: u_a8 - u_a12 - 1004 y_a12_proc_1 >= -1223
 c310: u_a13 - u_a8 - 768 y_a8_proc_0 >= 0
 c311: u_a8 - u_a13 - 834 y_a13_proc_0 >= -1
 c312: u_a14 - u_a8 - 768 y_a8_proc_0 >= 0
 c313: u_a8 - u_a14 - 987 y_a14_proc_0 >= -1
 c314: u_a10 - u_a9 - 784 y_a9_proc_0 >= -1256
 c315: u_a10 - u_a9 - 1039 y_a9_proc_1 >= -1256
 c316: u_a9 - u_a10 - 1132 y_a10_proc_0 >= -1223
 c317: u_a9 - u_a10 - 861 y_a10_proc_1 >= -1223
 c318: u_a11 - u_a9 - 1039 y_a9_proc_1 >= 0
 c319: u_a9 - u_a11 - 1239 y_a11_proc_1 >= -1
 c320: u_a12 - u_a9 - 784 y_a9_proc_0 >= -2479
 c321: u_a12 - u_a9 - 1039 y_a9_proc_1 >= -1
 c322: u_a9 - u_a12 - 1203 y_a12_proc_0 >= -2478
 c323: u_a9 - u_a12 - 1004 y_a12_proc_1 >= 0
 c324: u_a13 - u_a9 - 784 y_a9_proc_0 >= -1256
 c325: u_a9 - u_a13 - 834 y_a13_proc_0 >= -1223
 c326: u_a14 - u_a9 - 784 y_a9_proc_0 >= -1256
 c327: u_a9 - u_a14 - 987 y_a14_proc_0 >= -1223
 c328: u_a11 - u_a10 - 861 y_a10_proc_1 >= -1256
 c329: u_a10 - u_a11 - 1239 y_a11_proc_1 >= -1223
 c330: u_a12 - u_a10 - 1132 y_a10_proc_0 >= -1256
 c331: u_a12 - u_a10 - 861 y_a10_proc_1 >= -1256
 c332: u_a10 - u_a12 - 1203 y_a12_proc_0 >= -1223
 c333: u_a10 - u_a12 - 1004 y_a12_proc_1 >= -1223
 c334: u_a13 - u_a10 - 1132 y_a10_proc_0 >= -1
 c335: u_a10 - u_a13 - 834 y_a13_proc_0 >= 0
 c336: u_a14 - u_a10 - 1132 y_a10_proc_0 >= -1
 c337: u_a10 - u_a14 - 987 y_a14_proc_0 >= 0
 c338: u_a12 - u_a11 - 1239 y_a11_proc_1 >= -1
 c339: u_a11 - u_a12 - 1004 y_a12_proc_1 >= 0
 c340: u_a13 - u_a12 - 1203 y_a12_proc_0 >= -1256
 c341: u_a12 - u_a13 - 834 y_a13_proc_0 >= -1223
 c342: u_a14 - u_a12 - 1203 y_a12_proc_0 >= -1256
 c343: u_a12 - u_a14 - 987 y_a14_proc_0 >= -1223
 c344: u_a14 - u_a13 - 834 y_a13_proc_0 >= -1
 c345: u_a13 - u_a14 - 987 y_a14_proc_0 >= 0

Bounds
End
